
%FILE DATA:	Soccer Computational Problem for MiniZinc Models	%
%AUTHOR:	Jack Wall	%
%CONTACT:  	116397063@umail.ucc.ie			%
%LAST UPDATE:	01/29/2020, 10:18:05						%
%DESCRIPTION: 	0 games played with 56 games left				%

n=8; %number of teams

%Games to play
games=[|3,8|4,3|5,2|7,6|4,2|8,2|3,1|2,8|7,2|4,6|1,8|3,7|6,2|8,7|8,1|3,5|7,5|6,8|4,7|1,3|3,6|7,8|3,4|7,1|4,8|1,2|4,1|2,4|8,3|1,5|2,1|5,8|5,3|4,5|6,5|5,6|7,4|5,1|8,4|6,4|1,4|5,7|8,5|3,2|1,6|2,3|2,6|2,5|7,3|6,3|6,1|6,7|2,7|1,7|5,4|8,6|];

%Initial points
iPoints=[0,0,0,0,0,0,0,3];

%POSITION CONSTRAINTS
% [|teamID, operator, position|...]
% operators index:
%  1 for =  operator
%  2 for >  operator
%  3 for >= operator
%  4 for <  operator
%  5 for <= operator
positionConstraints=[|3,4,2|8,4,3|];